<number of tasks>
89

<cycle time>
103

<task times>
1 28
2 17
3 7
4 10
5 12
6 16
7 13
8 8
9 13
10 24
11 16
12 24
13 12
14 20
15 22
16 22
17 22
18 47
19 6
20 12
21 6
22 22
23 7
24 14
25 68
26 15
27 8
28 74
29 32
30 11
31 18
32 15
33 42
34 27
35 38
36 38
37 26
38 35
39 31
40 8
41 14
42 8
43 8
44 8
45 17
46 7
47 19
48 12
49 24
50 26
51 22
52 14
53 27
54 60
55 4
56 2
57 1
58 9
59 5
60 6
61 7
62 12
63 2
64 11
65 14
66 6
67 21
68 14
69 1
70 6
71 21
72 11
73 14
74 28
75 12
76 11
77 30
78 22
79 14
80 31
81 18
82 16
83 7
84 38
85 8
86 31
87 29
88 12
89 18

<precedence relations>
1,2
2,3
3,4
4,5
4,6
4,7
4,8
4,9
5,10
6,11
7,12
8,18
9,18
10,14
11,12
12,13
13,14
14,15
14,16
15,17
16,54
17,18
18,19
18,20
19,22
20,21
20,28
21,54
22,23
23,24
24,25
25,26
25,27
25,29
26,37
27,33
28,29
29,31
30,54
31,32
32,33
33,34
34,35
35,36
35,37
36,38
37,38
38,39
39,40
39,41
39,42
39,43
40,44
41,53
42,53
43,45
44,52
45,46
46,47
47,48
47,49
49,50
50,51
51,52
52,53
53,68
53,69
53,70
53,71
54,55
55,56
56,57
57,58
57,59
57,60
57,61
57,62
57,63
57,64
57,65
57,66
58,67
59,67
60,67
61,67
62,67
63,67
64,67
65,67
66,67
67,73
68,72
69,72
70,72
71,73
72,78
72,80
73,74
74,75
74,76
75,77
76,81
77,78
78,79
79,81
80,81
81,82
81,84
81,85
82,83
83,86
84,86
85,86
86,87
87,88
87,89

<setup times forward>
1,30:1
2,30:1
3,30:1
4,5:1
4,7:1
4,9:1
4,30:1
5,6:1
5,8:1
5,11:1
5,30:2
6,5:1
6,7:1
6,9:1
6,10:1
6,30:1
7,6:1
7,8:1
7,11:1
7,30:2
8,5:1
8,7:1
8,9:1
8,10:1
8,12:1
8,13:1
8,14:1
8,15:1
8,16:1
8,17:1
8,30:1
9,6:1
9,8:1
9,11:1
9,14:2
9,15:2
9,16:2
9,17:2
9,18:1
9,30:2
10,6:1
10,8:1
10,11:1
10,14:2
10,30:2
11,5:1
11,7:1
11,9:1
11,10:1
11,12:1
11,30:1
12,8:1
12,30:2
13,8:1
13,14:2
13,30:2
14,8:1
14,9:2
15,8:1
15,9:2
16,8:1
16,9:2
16,18:1
16,19:1
16,20:1
16,21:1
16,22:1
16,23:1
16,24:1
16,25:1
16,27:1
16,29:1
16,31:1
16,32:1
16,33:1
16,34:2
16,35:2
16,36:2
16,40:1
16,41:1
16,42:1
16,44:1
16,45:1
16,46:1
16,47:1
16,48:1
16,49:1
16,50:1
16,51:1
16,52:1
16,53:1
16,54:1
16,68:2
16,69:2
16,70:2
16,71:2
16,72:2
16,80:2
17,8:1
17,9:2
17,18:1
18,16:1
18,30:1
19,16:1
19,28:1
19,30:1
19,54:2
19,55:2
19,56:2
19,57:2
19,63:2
20,16:1
20,26:1
20,28:1
20,30:1
21,16:1
21,26:1
21,28:1
21,30:1
21,33:2
21,34:1
21,35:1
21,36:1
21,37:1
21,38:1
21,39:1
21,43:1
21,45:2
21,46:2
21,47:2
21,49:2
21,50:2
21,54:2
21,68:1
21,69:1
21,70:1
21,71:1
21,72:1
21,80:1
22,16:1
22,28:1
22,30:1
22,54:2
22,55:2
22,56:2
22,57:2
22,63:2
23,16:1
23,28:1
23,30:1
23,54:2
23,55:2
23,56:2
23,57:2
23,63:2
24,16:1
24,28:1
24,30:1
24,54:2
24,55:2
24,56:2
24,57:2
24,63:2
25,16:1
25,26:1
25,28:1
25,30:1
25,54:2
25,55:2
25,56:2
25,57:2
25,63:2
26,20:1
26,21:1
26,27:1
26,29:1
26,31:1
26,32:1
26,33:1
26,34:2
26,35:2
26,36:2
26,54:1
26,55:1
26,56:1
26,57:1
26,58:1
26,59:1
26,60:1
26,61:1
26,62:1
26,63:1
26,64:1
26,65:1
26,66:1
26,67:1
27,16:1
27,26:1
27,28:1
27,30:1
27,33:2
27,54:2
27,55:2
27,56:2
27,57:2
27,63:2
28,19:1
28,21:1
28,22:1
28,23:1
28,24:1
28,25:1
28,27:1
28,29:1
28,54:1
28,55:1
28,56:1
28,57:1
28,58:1
28,59:1
28,60:1
28,61:1
28,62:1
28,63:1
28,64:1
28,65:1
28,66:1
28,67:1
29,16:1
29,26:1
29,30:1
29,54:2
29,55:2
29,56:2
29,57:2
29,63:2
30,1:1
30,2:1
30,3:1
30,4:1
30,5:2
30,6:1
30,7:2
30,8:1
30,9:2
30,10:2
30,11:1
30,12:2
30,13:2
30,18:1
30,19:1
30,20:1
30,21:1
30,22:1
30,23:1
30,24:1
30,25:1
30,27:1
30,29:1
30,31:1
30,32:1
30,33:1
30,34:2
30,35:2
30,36:2
30,40:1
30,41:1
30,42:1
30,44:1
30,45:1
30,46:1
30,47:1
30,48:1
30,49:1
30,50:1
30,51:1
30,52:1
30,53:1
30,54:1
30,68:2
30,69:2
30,70:2
30,71:2
30,72:2
30,80:2
31,16:1
31,26:1
31,30:1
31,54:2
31,55:2
31,56:2
31,57:2
31,63:2
32,16:1
32,26:1
32,30:1
32,33:2
32,54:2
32,55:2
32,56:2
32,57:2
32,63:2
33,16:1
33,21:2
33,26:1
33,30:1
33,34:3
33,58:2
33,59:2
33,60:2
33,61:2
33,62:2
33,64:2
33,65:2
33,66:2
33,67:2
34,16:2
34,21:1
34,26:2
34,30:2
34,54:3
34,55:3
34,56:3
34,57:3
34,58:1
34,59:1
34,60:1
34,61:1
34,62:1
34,63:3
34,64:1
34,65:1
34,66:1
34,67:1
35,16:2
35,21:1
35,26:2
35,30:2
35,37:2
35,54:3
35,55:3
35,56:3
35,57:3
35,58:1
35,59:1
35,60:1
35,61:1
35,62:1
35,63:3
35,64:1
35,65:1
35,66:1
35,67:1
36,16:2
36,21:1
36,26:2
36,30:2
36,37:2
36,38:2
36,54:3
36,55:3
36,56:3
36,57:3
36,58:1
36,59:1
36,60:1
36,61:1
36,62:1
36,63:3
36,64:1
36,65:1
36,66:1
36,67:1
37,21:1
37,36:2
37,54:1
37,55:1
37,56:1
37,57:1
37,58:1
37,59:1
37,60:1
37,61:1
37,62:1
37,63:1
37,64:1
37,65:1
37,66:1
37,67:1
38,21:1
38,54:1
38,55:1
38,56:1
38,57:1
38,58:1
38,59:1
38,60:1
38,61:1
38,62:1
38,63:1
38,64:1
38,65:1
38,66:1
38,67:1
39,21:1
39,40:1
39,41:1
39,42:1
39,54:1
39,55:1
39,56:1
39,57:1
39,58:1
39,59:1
39,60:1
39,61:1
39,62:1
39,63:1
39,64:1
39,65:1
39,66:1
39,67:1
40,16:1
40,30:1
40,43:1
40,45:2
40,46:2
40,47:2
40,49:2
40,50:2
40,54:2
40,55:2
40,56:2
40,57:2
40,63:2
41,16:1
41,30:1
41,43:1
41,45:2
41,46:2
41,47:2
41,49:2
41,50:2
41,54:2
41,55:2
41,56:2
41,57:2
41,63:2
42,16:1
42,30:1
42,43:1
42,45:2
42,46:2
42,47:2
42,49:2
42,50:2
42,54:2
42,55:2
42,56:2
42,57:2
42,63:2
43,21:1
43,40:1
43,41:1
43,42:1
43,44:1
43,45:1
43,54:1
43,55:1
43,56:1
43,57:1
43,58:1
43,59:1
43,60:1
43,61:1
43,62:1
43,63:1
43,64:1
43,65:1
43,66:1
43,67:1
44,16:1
44,30:1
44,43:1
44,45:2
44,46:2
44,47:2
44,49:2
44,50:2
44,54:2
44,55:2
44,56:2
44,57:2
44,63:2
45,16:1
45,21:2
45,30:1
45,40:2
45,41:2
45,42:2
45,44:2
45,58:2
45,59:2
45,60:2
45,61:2
45,62:2
45,64:2
45,65:2
45,66:2
45,67:2
46,16:1
46,21:2
46,30:1
46,40:2
46,41:2
46,42:2
46,44:2
46,58:2
46,59:2
46,60:2
46,61:2
46,62:2
46,64:2
46,65:2
46,66:2
46,67:2
47,16:1
47,21:2
47,30:1
47,40:2
47,41:2
47,42:2
47,44:2
47,48:2
47,58:2
47,59:2
47,60:2
47,61:2
47,62:2
47,64:2
47,65:2
47,66:2
47,67:2
48,16:1
48,30:1
48,49:2
48,50:2
48,54:2
48,55:2
48,56:2
48,57:2
48,63:2
48,68:1
48,69:1
48,70:1
48,71:1
48,72:1
48,73:1
48,74:2
48,75:2
48,76:2
48,77:2
48,78:2
48,79:2
48,80:1
48,81:2
48,82:2
48,83:1
48,84:2
48,85:2
48,86:1
48,87:1
48,88:1
48,89:1
49,16:1
49,21:2
49,30:1
49,40:2
49,41:2
49,42:2
49,44:2
49,48:2
49,58:2
49,59:2
49,60:2
49,61:2
49,62:2
49,64:2
49,65:2
49,66:2
49,67:2
50,16:1
50,21:2
50,30:1
50,40:2
50,41:2
50,42:2
50,44:2
50,48:2
50,51:2
50,58:2
50,59:2
50,60:2
50,61:2
50,62:2
50,64:2
50,65:2
50,66:2
50,67:2
51,16:1
51,30:1
51,54:2
51,55:2
51,56:2
51,57:2
51,63:2
52,16:1
52,30:1
52,54:2
52,55:2
52,56:2
52,57:2
52,63:2
53,16:1
53,30:1
53,54:2
53,55:2
53,56:2
53,57:2
53,63:2
53,68:1
53,69:1
53,70:1
53,71:1
54,19:2
54,22:2
54,23:2
54,24:2
54,25:2
54,26:1
54,27:2
54,28:1
54,29:2
54,31:2
54,32:2
54,34:3
54,35:3
54,36:3
54,37:1
54,38:1
54,39:1
54,40:2
54,41:2
54,42:2
54,43:1
54,44:2
54,48:2
54,51:2
54,52:2
54,53:2
54,68:3
54,69:3
54,70:3
54,71:3
54,72:3
54,80:3
55,19:2
55,22:2
55,23:2
55,24:2
55,25:2
55,26:1
55,27:2
55,28:1
55,29:2
55,31:2
55,32:2
55,34:3
55,35:3
55,36:3
55,37:1
55,38:1
55,39:1
55,40:2
55,41:2
55,42:2
55,43:1
55,44:2
55,48:2
55,51:2
55,52:2
55,53:2
55,68:3
55,69:3
55,70:3
55,71:3
55,72:3
55,80:3
56,19:2
56,22:2
56,23:2
56,24:2
56,25:2
56,26:1
56,27:2
56,28:1
56,29:2
56,31:2
56,32:2
56,34:3
56,35:3
56,36:3
56,37:1
56,38:1
56,39:1
56,40:2
56,41:2
56,42:2
56,43:1
56,44:2
56,48:2
56,51:2
56,52:2
56,53:2
56,68:3
56,69:3
56,70:3
56,71:3
56,72:3
56,80:3
57,19:2
57,22:2
57,23:2
57,24:2
57,25:2
57,26:1
57,27:2
57,28:1
57,29:2
57,31:2
57,32:2
57,34:3
57,35:3
57,36:3
57,37:1
57,38:1
57,39:1
57,40:2
57,41:2
57,42:2
57,43:1
57,44:2
57,48:2
57,51:2
57,52:2
57,53:2
57,58:2
57,59:2
57,60:2
57,61:2
57,62:2
57,64:2
57,65:2
57,66:2
57,68:3
57,69:3
57,70:3
57,71:3
57,72:3
57,80:3
58,26:1
58,28:1
58,33:2
58,34:1
58,35:1
58,36:1
58,37:1
58,38:1
58,39:1
58,43:1
58,45:2
58,46:2
58,47:2
58,49:2
58,50:2
58,63:2
58,68:1
58,69:1
58,70:1
58,71:1
58,72:1
58,80:1
59,26:1
59,28:1
59,33:2
59,34:1
59,35:1
59,36:1
59,37:1
59,38:1
59,39:1
59,43:1
59,45:2
59,46:2
59,47:2
59,49:2
59,50:2
59,63:2
59,68:1
59,69:1
59,70:1
59,71:1
59,72:1
59,80:1
60,26:1
60,28:1
60,33:2
60,34:1
60,35:1
60,36:1
60,37:1
60,38:1
60,39:1
60,43:1
60,45:2
60,46:2
60,47:2
60,49:2
60,50:2
60,63:2
60,68:1
60,69:1
60,70:1
60,71:1
60,72:1
60,80:1
61,26:1
61,28:1
61,33:2
61,34:1
61,35:1
61,36:1
61,37:1
61,38:1
61,39:1
61,43:1
61,45:2
61,46:2
61,47:2
61,49:2
61,50:2
61,63:2
61,68:1
61,69:1
61,70:1
61,71:1
61,72:1
61,80:1
62,26:1
62,28:1
62,33:2
62,34:1
62,35:1
62,36:1
62,37:1
62,38:1
62,39:1
62,43:1
62,45:2
62,46:2
62,47:2
62,49:2
62,50:2
62,63:2
62,68:1
62,69:1
62,70:1
62,71:1
62,72:1
62,80:1
63,19:2
63,22:2
63,23:2
63,24:2
63,25:2
63,26:1
63,27:2
63,28:1
63,29:2
63,31:2
63,32:2
63,34:3
63,35:3
63,36:3
63,37:1
63,38:1
63,39:1
63,40:2
63,41:2
63,42:2
63,43:1
63,44:2
63,48:2
63,51:2
63,52:2
63,53:2
63,58:2
63,59:2
63,60:2
63,61:2
63,62:2
63,64:2
63,65:2
63,66:2
63,67:2
63,68:3
63,69:3
63,70:3
63,71:3
63,72:3
63,80:3
64,26:1
64,28:1
64,33:2
64,34:1
64,35:1
64,36:1
64,37:1
64,38:1
64,39:1
64,43:1
64,45:2
64,46:2
64,47:2
64,49:2
64,50:2
64,63:2
64,68:1
64,69:1
64,70:1
64,71:1
64,72:1
64,80:1
65,26:1
65,28:1
65,33:2
65,34:1
65,35:1
65,36:1
65,37:1
65,38:1
65,39:1
65,43:1
65,45:2
65,46:2
65,47:2
65,49:2
65,50:2
65,63:2
65,68:1
65,69:1
65,70:1
65,71:1
65,72:1
65,80:1
66,26:1
66,28:1
66,33:2
66,34:1
66,35:1
66,36:1
66,37:1
66,38:1
66,39:1
66,43:1
66,45:2
66,46:2
66,47:2
66,49:2
66,50:2
66,63:2
66,68:1
66,69:1
66,70:1
66,71:1
66,72:1
66,80:1
67,26:1
67,28:1
67,33:2
67,34:1
67,35:1
67,36:1
67,37:1
67,38:1
67,39:1
67,43:1
67,45:2
67,46:2
67,47:2
67,49:2
67,50:2
67,68:1
67,69:1
67,70:1
67,71:1
67,72:1
67,73:1
67,80:1
68,16:2
68,21:1
68,30:2
68,48:1
68,54:3
68,55:3
68,56:3
68,57:3
68,58:1
68,59:1
68,60:1
68,61:1
68,62:1
68,63:3
68,64:1
68,65:1
68,66:1
68,67:1
68,74:3
68,75:3
68,76:3
68,77:3
69,16:2
69,21:1
69,30:2
69,48:1
69,54:3
69,55:3
69,56:3
69,57:3
69,58:1
69,59:1
69,60:1
69,61:1
69,62:1
69,63:3
69,64:1
69,65:1
69,66:1
69,67:1
69,74:3
69,75:3
69,76:3
69,77:3
70,16:2
70,21:1
70,30:2
70,48:1
70,54:3
70,55:3
70,56:3
70,57:3
70,58:1
70,59:1
70,60:1
70,61:1
70,62:1
70,63:3
70,64:1
70,65:1
70,66:1
70,67:1
70,74:3
70,75:3
70,76:3
70,77:3
71,16:2
71,21:1
71,30:2
71,48:1
71,54:3
71,55:3
71,56:3
71,57:3
71,58:1
71,59:1
71,60:1
71,61:1
71,62:1
71,63:3
71,64:1
71,65:1
71,66:1
71,67:1
72,16:2
72,21:1
72,30:2
72,48:1
72,54:3
72,55:3
72,56:3
72,57:3
72,58:1
72,59:1
72,60:1
72,61:1
72,62:1
72,63:3
72,64:1
72,65:1
72,66:1
72,67:1
72,74:3
72,75:3
72,76:3
72,77:3
72,78:3
73,48:1
73,74:3
74,48:2
74,68:3
74,69:3
74,70:3
74,72:3
74,80:3
75,48:2
75,68:3
75,69:3
75,70:3
75,72:3
75,80:3
76,48:2
76,68:3
76,69:3
76,70:3
76,72:3
76,80:3
77,48:2
77,68:3
77,69:3
77,70:3
77,72:3
77,80:3
78,48:2
78,80:3
79,48:2
79,80:3
80,16:2
80,21:1
80,30:2
80,48:1
80,54:3
80,55:3
80,56:3
80,57:3
80,58:1
80,59:1
80,60:1
80,61:1
80,62:1
80,63:3
80,64:1
80,65:1
80,66:1
80,67:1
80,74:3
80,75:3
80,76:3
80,77:3
80,78:3
80,79:3
80,81:3
81,48:2
82,48:2
82,83:3
83,48:1
83,84:3
83,85:3
84,48:2
84,83:3
84,86:3
85,48:2
85,83:3
85,86:3
86,48:1
87,48:1
88,48:1
89,48:1

<setup times backward>
1,30:1
2,30:1
3,30:1
4,30:1
5,1:1
5,2:1
5,3:1
5,4:1
5,6:1
5,8:1
5,11:1
5,30:2
6,30:1
7,1:1
7,2:1
7,3:1
7,4:1
7,6:1
7,8:1
7,11:1
7,30:2
8,14:1
8,15:1
8,16:1
8,17:1
8,30:1
9,1:1
9,2:1
9,3:1
9,4:1
9,6:1
9,8:1
9,11:1
9,14:2
9,15:2
9,16:2
9,17:2
9,30:2
10,1:1
10,2:1
10,3:1
10,4:1
10,6:1
10,8:1
10,11:1
10,30:2
11,30:1
12,1:1
12,2:1
12,3:1
12,4:1
12,6:1
12,8:1
12,11:1
12,30:2
13,1:1
13,2:1
13,3:1
13,4:1
13,6:1
13,8:1
13,11:1
13,30:2
16,33:1
16,45:1
16,46:1
16,47:1
16,49:1
16,50:1
18,14:1
18,15:1
18,16:1
18,17:1
18,30:1
19,14:1
19,15:1
19,16:1
19,17:1
19,28:1
19,30:1
19,54:2
19,55:2
19,56:2
19,57:2
19,63:2
20,14:1
20,15:1
20,16:1
20,17:1
20,26:1
20,30:1
21,14:1
21,15:1
21,16:1
21,17:1
21,26:1
21,28:1
21,30:1
21,33:2
21,37:1
21,38:1
21,39:1
21,43:1
21,45:2
21,46:2
21,47:2
21,49:2
21,50:2
22,14:1
22,15:1
22,16:1
22,17:1
22,28:1
22,30:1
22,54:2
22,55:2
22,56:2
22,57:2
22,63:2
23,14:1
23,15:1
23,16:1
23,17:1
23,28:1
23,30:1
23,54:2
23,55:2
23,56:2
23,57:2
23,63:2
24,14:1
24,15:1
24,16:1
24,17:1
24,28:1
24,30:1
24,54:2
24,55:2
24,56:2
24,57:2
24,63:2
25,14:1
25,15:1
25,16:1
25,17:1
25,28:1
25,30:1
25,54:2
25,55:2
25,56:2
25,57:2
25,63:2
26,33:1
26,54:1
26,55:1
26,56:1
26,57:1
26,63:1
27,14:1
27,15:1
27,16:1
27,17:1
27,26:1
27,28:1
27,30:1
27,54:2
27,55:2
27,56:2
27,57:2
27,63:2
28,54:1
28,55:1
28,56:1
28,57:1
28,63:1
29,14:1
29,15:1
29,16:1
29,17:1
29,26:1
29,28:1
29,30:1
29,54:2
29,55:2
29,56:2
29,57:2
29,63:2
30,33:1
30,45:1
30,46:1
30,47:1
30,49:1
30,50:1
31,14:1
31,15:1
31,16:1
31,17:1
31,26:1
31,28:1
31,30:1
31,54:2
31,55:2
31,56:2
31,57:2
31,63:2
32,14:1
32,15:1
32,16:1
32,17:1
32,26:1
32,28:1
32,30:1
32,54:2
32,55:2
32,56:2
32,57:2
32,63:2
34,1:1
34,2:1
34,3:1
34,4:1
34,6:1
34,8:1
34,11:1
34,14:2
34,15:2
34,16:2
34,17:2
34,18:1
34,19:1
34,20:1
34,21:1
34,22:1
34,23:1
34,24:1
34,25:1
34,26:2
34,27:1
34,28:2
34,29:1
34,30:2
34,31:1
34,32:1
34,33:3
34,54:3
34,55:3
34,56:3
34,57:3
34,58:1
34,59:1
34,60:1
34,61:1
34,62:1
34,63:3
34,64:1
34,65:1
34,66:1
34,67:1
35,1:1
35,2:1
35,3:1
35,4:1
35,6:1
35,8:1
35,11:1
35,14:2
35,15:2
35,16:2
35,17:2
35,18:1
35,19:1
35,20:1
35,21:1
35,22:1
35,23:1
35,24:1
35,25:1
35,26:2
35,27:1
35,28:2
35,29:1
35,30:2
35,31:1
35,32:1
35,33:3
35,54:3
35,55:3
35,56:3
35,57:3
35,58:1
35,59:1
35,60:1
35,61:1
35,62:1
35,63:3
35,64:1
35,65:1
35,66:1
35,67:1
36,1:1
36,2:1
36,3:1
36,4:1
36,6:1
36,8:1
36,11:1
36,14:2
36,15:2
36,16:2
36,17:2
36,18:1
36,19:1
36,20:1
36,21:1
36,22:1
36,23:1
36,24:1
36,25:1
36,26:2
36,27:1
36,28:2
36,29:1
36,30:2
36,31:1
36,32:1
36,33:3
36,37:2
36,54:3
36,55:3
36,56:3
36,57:3
36,58:1
36,59:1
36,60:1
36,61:1
36,62:1
36,63:3
36,64:1
36,65:1
36,66:1
36,67:1
37,33:1
37,54:1
37,55:1
37,56:1
37,57:1
37,63:1
38,33:1
38,54:1
38,55:1
38,56:1
38,57:1
38,63:1
39,33:1
39,54:1
39,55:1
39,56:1
39,57:1
39,63:1
40,14:1
40,15:1
40,16:1
40,17:1
40,26:1
40,28:1
40,30:1
40,33:2
40,37:1
40,38:1
40,39:1
40,43:1
40,45:2
40,46:2
40,47:2
40,49:2
40,50:2
40,54:2
40,55:2
40,56:2
40,57:2
40,63:2
41,14:1
41,15:1
41,16:1
41,17:1
41,26:1
41,28:1
41,30:1
41,33:2
41,37:1
41,38:1
41,39:1
41,43:1
41,45:2
41,46:2
41,47:2
41,49:2
41,50:2
41,54:2
41,55:2
41,56:2
41,57:2
41,63:2
42,14:1
42,15:1
42,16:1
42,17:1
42,26:1
42,28:1
42,30:1
42,33:2
42,37:1
42,38:1
42,39:1
42,43:1
42,45:2
42,46:2
42,47:2
42,49:2
42,50:2
42,54:2
42,55:2
42,56:2
42,57:2
42,63:2
43,33:1
43,54:1
43,55:1
43,56:1
43,57:1
43,63:1
44,14:1
44,15:1
44,16:1
44,17:1
44,26:1
44,28:1
44,30:1
44,33:2
44,37:1
44,38:1
44,39:1
44,43:1
44,45:2
44,46:2
44,47:2
44,49:2
44,50:2
44,54:2
44,55:2
44,56:2
44,57:2
44,63:2
48,14:1
48,15:1
48,16:1
48,17:1
48,26:1
48,28:1
48,30:1
48,33:2
48,37:1
48,38:1
48,39:1
48,43:1
48,45:2
48,46:2
48,47:2
48,49:2
48,50:2
48,54:2
48,55:2
48,56:2
48,57:2
48,63:2
48,74:2
48,75:2
48,76:2
48,77:2
48,78:2
48,79:2
48,81:2
48,82:2
48,84:2
48,85:2
51,14:1
51,15:1
51,16:1
51,17:1
51,26:1
51,28:1
51,30:1
51,33:2
51,37:1
51,38:1
51,39:1
51,43:1
51,45:2
51,46:2
51,47:2
51,49:2
51,50:2
51,54:2
51,55:2
51,56:2
51,57:2
51,63:2
52,14:1
52,15:1
52,16:1
52,17:1
52,26:1
52,28:1
52,30:1
52,33:2
52,37:1
52,38:1
52,39:1
52,43:1
52,45:2
52,46:2
52,47:2
52,49:2
52,50:2
52,54:2
52,55:2
52,56:2
52,57:2
52,63:2
53,14:1
53,15:1
53,16:1
53,17:1
53,26:1
53,28:1
53,30:1
53,33:2
53,37:1
53,38:1
53,39:1
53,43:1
53,45:2
53,46:2
53,47:2
53,49:2
53,50:2
53,54:2
53,55:2
53,56:2
53,57:2
53,63:2
58,14:1
58,15:1
58,16:1
58,17:1
58,26:1
58,28:1
58,30:1
58,33:2
58,37:1
58,38:1
58,39:1
58,43:1
58,45:2
58,46:2
58,47:2
58,49:2
58,50:2
58,54:2
58,55:2
58,56:2
58,57:2
58,63:2
59,14:1
59,15:1
59,16:1
59,17:1
59,26:1
59,28:1
59,30:1
59,33:2
59,37:1
59,38:1
59,39:1
59,43:1
59,45:2
59,46:2
59,47:2
59,49:2
59,50:2
59,54:2
59,55:2
59,56:2
59,57:2
59,63:2
60,14:1
60,15:1
60,16:1
60,17:1
60,26:1
60,28:1
60,30:1
60,33:2
60,37:1
60,38:1
60,39:1
60,43:1
60,45:2
60,46:2
60,47:2
60,49:2
60,50:2
60,54:2
60,55:2
60,56:2
60,57:2
60,63:2
61,14:1
61,15:1
61,16:1
61,17:1
61,26:1
61,28:1
61,30:1
61,33:2
61,37:1
61,38:1
61,39:1
61,43:1
61,45:2
61,46:2
61,47:2
61,49:2
61,50:2
61,54:2
61,55:2
61,56:2
61,57:2
61,63:2
62,14:1
62,15:1
62,16:1
62,17:1
62,26:1
62,28:1
62,30:1
62,33:2
62,37:1
62,38:1
62,39:1
62,43:1
62,45:2
62,46:2
62,47:2
62,49:2
62,50:2
62,54:2
62,55:2
62,56:2
62,57:2
62,63:2
64,14:1
64,15:1
64,16:1
64,17:1
64,26:1
64,28:1
64,30:1
64,33:2
64,37:1
64,38:1
64,39:1
64,43:1
64,45:2
64,46:2
64,47:2
64,49:2
64,50:2
64,54:2
64,55:2
64,56:2
64,57:2
64,63:2
65,14:1
65,15:1
65,16:1
65,17:1
65,26:1
65,28:1
65,30:1
65,33:2
65,37:1
65,38:1
65,39:1
65,43:1
65,45:2
65,46:2
65,47:2
65,49:2
65,50:2
65,54:2
65,55:2
65,56:2
65,57:2
65,63:2
66,14:1
66,15:1
66,16:1
66,17:1
66,26:1
66,28:1
66,30:1
66,33:2
66,37:1
66,38:1
66,39:1
66,43:1
66,45:2
66,46:2
66,47:2
66,49:2
66,50:2
66,54:2
66,55:2
66,56:2
66,57:2
66,63:2
67,14:1
67,15:1
67,16:1
67,17:1
67,26:1
67,28:1
67,30:1
67,33:2
67,37:1
67,38:1
67,39:1
67,43:1
67,45:2
67,46:2
67,47:2
67,49:2
67,50:2
67,54:2
67,55:2
67,56:2
67,57:2
67,63:2
68,1:1
68,2:1
68,3:1
68,4:1
68,6:1
68,8:1
68,11:1
68,14:2
68,15:2
68,16:2
68,17:2
68,18:1
68,19:1
68,20:1
68,21:1
68,22:1
68,23:1
68,24:1
68,25:1
68,26:2
68,27:1
68,28:2
68,29:1
68,30:2
68,31:1
68,32:1
68,33:3
68,37:2
68,38:2
68,39:2
68,40:1
68,41:1
68,42:1
68,43:2
68,44:1
68,45:3
68,46:3
68,47:3
68,48:1
68,49:3
68,50:3
68,51:1
68,52:1
68,53:1
68,54:3
68,55:3
68,56:3
68,57:3
68,58:1
68,59:1
68,60:1
68,61:1
68,62:1
68,63:3
68,64:1
68,65:1
68,66:1
68,67:1
68,74:3
68,75:3
68,76:3
68,77:3
69,1:1
69,2:1
69,3:1
69,4:1
69,6:1
69,8:1
69,11:1
69,14:2
69,15:2
69,16:2
69,17:2
69,18:1
69,19:1
69,20:1
69,21:1
69,22:1
69,23:1
69,24:1
69,25:1
69,26:2
69,27:1
69,28:2
69,29:1
69,30:2
69,31:1
69,32:1
69,33:3
69,37:2
69,38:2
69,39:2
69,40:1
69,41:1
69,42:1
69,43:2
69,44:1
69,45:3
69,46:3
69,47:3
69,48:1
69,49:3
69,50:3
69,51:1
69,52:1
69,53:1
69,54:3
69,55:3
69,56:3
69,57:3
69,58:1
69,59:1
69,60:1
69,61:1
69,62:1
69,63:3
69,64:1
69,65:1
69,66:1
69,67:1
69,74:3
69,75:3
69,76:3
69,77:3
70,1:1
70,2:1
70,3:1
70,4:1
70,6:1
70,8:1
70,11:1
70,14:2
70,15:2
70,16:2
70,17:2
70,18:1
70,19:1
70,20:1
70,21:1
70,22:1
70,23:1
70,24:1
70,25:1
70,26:2
70,27:1
70,28:2
70,29:1
70,30:2
70,31:1
70,32:1
70,33:3
70,37:2
70,38:2
70,39:2
70,40:1
70,41:1
70,42:1
70,43:2
70,44:1
70,45:3
70,46:3
70,47:3
70,48:1
70,49:3
70,50:3
70,51:1
70,52:1
70,53:1
70,54:3
70,55:3
70,56:3
70,57:3
70,58:1
70,59:1
70,60:1
70,61:1
70,62:1
70,63:3
70,64:1
70,65:1
70,66:1
70,67:1
70,74:3
70,75:3
70,76:3
70,77:3
71,1:1
71,2:1
71,3:1
71,4:1
71,6:1
71,8:1
71,11:1
71,14:2
71,15:2
71,16:2
71,17:2
71,18:1
71,19:1
71,20:1
71,21:1
71,22:1
71,23:1
71,24:1
71,25:1
71,26:2
71,27:1
71,28:2
71,29:1
71,30:2
71,31:1
71,32:1
71,33:3
71,37:2
71,38:2
71,39:2
71,40:1
71,41:1
71,42:1
71,43:2
71,44:1
71,45:3
71,46:3
71,47:3
71,48:1
71,49:3
71,50:3
71,51:1
71,52:1
71,53:1
71,54:3
71,55:3
71,56:3
71,57:3
71,58:1
71,59:1
71,60:1
71,61:1
71,62:1
71,63:3
71,64:1
71,65:1
71,66:1
71,67:1
72,1:1
72,2:1
72,3:1
72,4:1
72,6:1
72,8:1
72,11:1
72,14:2
72,15:2
72,16:2
72,17:2
72,18:1
72,19:1
72,20:1
72,21:1
72,22:1
72,23:1
72,24:1
72,25:1
72,26:2
72,27:1
72,28:2
72,29:1
72,30:2
72,31:1
72,32:1
72,33:3
72,37:2
72,38:2
72,39:2
72,40:1
72,41:1
72,42:1
72,43:2
72,44:1
72,45:3
72,46:3
72,47:3
72,48:1
72,49:3
72,50:3
72,51:1
72,52:1
72,53:1
72,54:3
72,55:3
72,56:3
72,57:3
72,58:1
72,59:1
72,60:1
72,61:1
72,62:1
72,63:3
72,64:1
72,65:1
72,66:1
72,67:1
72,74:3
72,75:3
72,76:3
72,77:3
73,1:1
73,2:1
73,3:1
73,4:1
73,6:1
73,8:1
73,11:1
73,14:2
73,15:2
73,16:2
73,17:2
73,18:1
73,19:1
73,20:1
73,21:1
73,22:1
73,23:1
73,24:1
73,25:1
73,26:2
73,27:1
73,28:2
73,29:1
73,30:2
73,31:1
73,32:1
73,33:3
73,37:2
73,38:2
73,39:2
73,40:1
73,41:1
73,42:1
73,43:2
73,44:1
73,45:3
73,46:3
73,47:3
73,48:1
73,49:3
73,50:3
73,51:1
73,52:1
73,53:1
73,54:3
73,55:3
73,56:3
73,57:3
73,58:1
73,59:1
73,60:1
73,61:1
73,62:1
73,63:3
73,64:1
73,65:1
73,66:1
73,67:1
80,1:1
80,2:1
80,3:1
80,4:1
80,6:1
80,8:1
80,11:1
80,14:2
80,15:2
80,16:2
80,17:2
80,18:1
80,19:1
80,20:1
80,21:1
80,22:1
80,23:1
80,24:1
80,25:1
80,26:2
80,27:1
80,28:2
80,29:1
80,30:2
80,31:1
80,32:1
80,33:3
80,37:2
80,38:2
80,39:2
80,40:1
80,41:1
80,42:1
80,43:2
80,44:1
80,45:3
80,46:3
80,47:3
80,48:1
80,49:3
80,50:3
80,51:1
80,52:1
80,53:1
80,54:3
80,55:3
80,56:3
80,57:3
80,58:1
80,59:1
80,60:1
80,61:1
80,62:1
80,63:3
80,64:1
80,65:1
80,66:1
80,67:1
80,74:3
80,75:3
80,76:3
80,77:3
80,78:3
80,79:3
83,1:1
83,2:1
83,3:1
83,4:1
83,6:1
83,8:1
83,11:1
83,14:2
83,15:2
83,16:2
83,17:2
83,18:1
83,19:1
83,20:1
83,21:1
83,22:1
83,23:1
83,24:1
83,25:1
83,26:2
83,27:1
83,28:2
83,29:1
83,30:2
83,31:1
83,32:1
83,33:3
83,37:2
83,38:2
83,39:2
83,40:1
83,41:1
83,42:1
83,43:2
83,44:1
83,45:3
83,46:3
83,47:3
83,48:1
83,49:3
83,50:3
83,51:1
83,52:1
83,53:1
83,54:3
83,55:3
83,56:3
83,57:3
83,58:1
83,59:1
83,60:1
83,61:1
83,62:1
83,63:3
83,64:1
83,65:1
83,66:1
83,67:1
83,74:3
83,75:3
83,76:3
83,77:3
83,78:3
83,79:3
83,81:3
83,82:3
83,84:3
83,85:3
86,1:1
86,2:1
86,3:1
86,4:1
86,6:1
86,8:1
86,11:1
86,14:2
86,15:2
86,16:2
86,17:2
86,18:1
86,19:1
86,20:1
86,21:1
86,22:1
86,23:1
86,24:1
86,25:1
86,26:2
86,27:1
86,28:2
86,29:1
86,30:2
86,31:1
86,32:1
86,33:3
86,37:2
86,38:2
86,39:2
86,40:1
86,41:1
86,42:1
86,43:2
86,44:1
86,45:3
86,46:3
86,47:3
86,48:1
86,49:3
86,50:3
86,51:1
86,52:1
86,53:1
86,54:3
86,55:3
86,56:3
86,57:3
86,58:1
86,59:1
86,60:1
86,61:1
86,62:1
86,63:3
86,64:1
86,65:1
86,66:1
86,67:1
86,74:3
86,75:3
86,76:3
86,77:3
86,78:3
86,79:3
86,81:3
86,82:3
86,84:3
86,85:3
87,1:1
87,2:1
87,3:1
87,4:1
87,6:1
87,8:1
87,11:1
87,14:2
87,15:2
87,16:2
87,17:2
87,18:1
87,19:1
87,20:1
87,21:1
87,22:1
87,23:1
87,24:1
87,25:1
87,26:2
87,27:1
87,28:2
87,29:1
87,30:2
87,31:1
87,32:1
87,33:3
87,37:2
87,38:2
87,39:2
87,40:1
87,41:1
87,42:1
87,43:2
87,44:1
87,45:3
87,46:3
87,47:3
87,48:1
87,49:3
87,50:3
87,51:1
87,52:1
87,53:1
87,54:3
87,55:3
87,56:3
87,57:3
87,58:1
87,59:1
87,60:1
87,61:1
87,62:1
87,63:3
87,64:1
87,65:1
87,66:1
87,67:1
87,74:3
87,75:3
87,76:3
87,77:3
87,78:3
87,79:3
87,81:3
87,82:3
87,84:3
87,85:3
88,1:1
88,2:1
88,3:1
88,4:1
88,6:1
88,8:1
88,11:1
88,14:2
88,15:2
88,16:2
88,17:2
88,18:1
88,19:1
88,20:1
88,21:1
88,22:1
88,23:1
88,24:1
88,25:1
88,26:2
88,27:1
88,28:2
88,29:1
88,30:2
88,31:1
88,32:1
88,33:3
88,37:2
88,38:2
88,39:2
88,40:1
88,41:1
88,42:1
88,43:2
88,44:1
88,45:3
88,46:3
88,47:3
88,48:1
88,49:3
88,50:3
88,51:1
88,52:1
88,53:1
88,54:3
88,55:3
88,56:3
88,57:3
88,58:1
88,59:1
88,60:1
88,61:1
88,62:1
88,63:3
88,64:1
88,65:1
88,66:1
88,67:1
88,74:3
88,75:3
88,76:3
88,77:3
88,78:3
88,79:3
88,81:3
88,82:3
88,84:3
88,85:3
89,1:1
89,2:1
89,3:1
89,4:1
89,6:1
89,8:1
89,11:1
89,14:2
89,15:2
89,16:2
89,17:2
89,18:1
89,19:1
89,20:1
89,21:1
89,22:1
89,23:1
89,24:1
89,25:1
89,26:2
89,27:1
89,28:2
89,29:1
89,30:2
89,31:1
89,32:1
89,33:3
89,37:2
89,38:2
89,39:2
89,40:1
89,41:1
89,42:1
89,43:2
89,44:1
89,45:3
89,46:3
89,47:3
89,48:1
89,49:3
89,50:3
89,51:1
89,52:1
89,53:1
89,54:3
89,55:3
89,56:3
89,57:3
89,58:1
89,59:1
89,60:1
89,61:1
89,62:1
89,63:3
89,64:1
89,65:1
89,66:1
89,67:1
89,74:3
89,75:3
89,76:3
89,77:3
89,78:3
89,79:3
89,81:3
89,82:3
89,84:3
89,85:3

<end>

<optimal SALBP-1 value>
17


<rand seed>
467321153

<Lower Bounds>
Lm1=16
Lms1=16
Lm2=3
Lm3=5
Lm4=17
Best=17

<Optimal Stations (Iterations: 10)>
18
